NAME : portgen-18-20
COMMENT : portgen N=18, seed=20
TYPE : TSP
DIMENSION : 18
EDGE_WEIGHT_TYPE : EUC_2D
NODE_COORD_SECTION
1 770676 422708
2 771955 334187
3 413816 48922
4 144415 520927
5 449077 72842
6 590134 907653
7 809315 672247
8 544006 305243
9 193227 381968
10 769317 959687
11 695852 667910
12 488079 499117
13 90124 824410
14 658882 612212
15 220552 810805
16 639022 593849
17 59584 678431
18 134219 708877
